Academic license - for non-commercial use only
Gurobi Optimizer version 9.0.3 build v9.0.3rc0 (mac64)
Optimize a model with 21858 rows, 20160 columns and 110380 nonzeros
Model fingerprint: 0xbca357f1
Variable types: 0 continuous, 20160 integer (20160 binary)
Coefficient statistics:
  Matrix range     [1e+00, 1e+00]
  Objective range  [1e+01, 3e+04]
  Bounds range     [1e+00, 1e+00]
  RHS range        [1e+00, 2e+02]
Presolve removed 20 rows and 20 columns
Presolve time: 0.15s
Presolved: 21838 rows, 20140 columns, 110340 nonzeros
Variable types: 0 continuous, 20140 integer (20140 binary)
Found heuristic solution: objective 258970.00000

Concurrent LP optimizer: dual simplex and barrier
Showing barrier log only...

Root barrier log...

Ordering time: 0.06s

Barrier statistics:
 Dense cols : 80
 AA' NZ     : 9.484e+04
 Factor NZ  : 4.102e+05 (roughly 20 MBytes of memory)
 Factor Ops : 1.415e+07 (less than 1 second per iteration)
 Threads    : 3

                  Objective                Residual
Iter       Primal          Dual         Primal    Dual     Compl     Time
   0   9.77907937e+06 -4.05405794e+04  7.45e+01 0.00e+00  1.41e+03     0s
   1   3.17653508e+05 -3.47274780e+06  4.42e-01 4.38e+02  6.83e+01     0s
   2   2.76354079e+05 -3.95704151e+05  9.37e-02 1.06e+02  1.12e+01     0s
   3   2.63072265e+05  1.07653254e+05  1.78e-02 2.27e+01  2.53e+00     0s
   4   2.49743898e+05  1.94297638e+05  2.91e-03 9.57e+00  9.02e-01     0s
   5   2.44395834e+05  2.18509649e+05  1.72e-03 3.70e+00  4.19e-01     0s
   6   2.39663202e+05  2.24684656e+05  1.02e-03 2.03e+00  2.42e-01     0s
   7   2.37312820e+05  2.26387499e+05  7.25e-04 1.49e+00  1.77e-01     0s
   8   2.35545613e+05  2.27847121e+05  4.99e-04 1.08e+00  1.25e-01     1s
   9   2.34244345e+05  2.29766452e+05  3.41e-04 5.16e-01  7.23e-02     1s
  10   2.33213515e+05  2.30101591e+05  2.22e-04 3.84e-01  5.03e-02     1s
  11   2.32521254e+05  2.30397573e+05  1.47e-04 2.73e-01  3.44e-02     1s
  12   2.32062219e+05  2.30573841e+05  9.74e-05 2.06e-01  2.41e-02     1s
  13   2.31841343e+05  2.30658426e+05  7.41e-05 1.73e-01  1.92e-02     1s
  14   2.31701402e+05  2.30844801e+05  6.00e-05 1.05e-01  1.39e-02     1s
  15   2.31489092e+05  2.30933856e+05  3.88e-05 6.60e-02  8.98e-03     1s
  16   2.31323865e+05  2.30961993e+05  2.27e-05 5.37e-02  5.87e-03     1s
  17   2.31257060e+05  2.31008874e+05  1.63e-05 3.21e-02  4.02e-03     1s
  18   2.31231345e+05  2.31024097e+05  1.39e-05 2.48e-02  3.35e-03     1s
  19   2.31215781e+05  2.31030477e+05  1.25e-05 2.15e-02  3.00e-03     1s
  20   2.31190667e+05  2.31053214e+05  1.02e-05 1.05e-02  2.22e-03     1s
  21   2.31109768e+05  2.31068317e+05  3.04e-06 2.80e-03  6.68e-04     1s
  22   2.31100744e+05  2.31071834e+05  2.26e-06 9.01e-04  4.64e-04     1s
  23   2.31092215e+05  2.31072759e+05  1.55e-06 4.16e-04  3.12e-04     1s
  24   2.31080538e+05  2.31073624e+05  4.87e-07 1.53e-04  1.11e-04     1s
  25   2.31077401e+05  2.31073740e+05  2.47e-07 1.04e-04  5.88e-05     1s
  26   2.31075187e+05  2.31073946e+05  8.17e-08 3.32e-06  1.99e-05     1s
  27   2.31074179e+05  2.31073985e+05  1.09e-08 1.20e-06  3.11e-06     1s
  28   2.31074000e+05  2.31074000e+05  5.78e-10 4.79e-08  3.29e-09     1s

Barrier solved model in 28 iterations and 0.85 seconds
Optimal objective 2.31074000e+05


Solved with dual simplex

Root relaxation: objective 2.310740e+05, 3628 iterations, 0.64 seconds

    Nodes    |    Current Node    |     Objective Bounds      |     Work
 Expl Unexpl |  Obj  Depth IntInf | Incumbent    BestBd   Gap | It/Node Time

     0     0 231074.000    0  280 258970.000 231074.000  10.8%     -    1s
H    0     0                    231099.00000 231074.000  0.01%     -    1s
H    0     0                    231098.00000 231074.000  0.01%     -    1s

Cutting planes:
  Gomory: 1
  Zero half: 6

Explored 1 nodes (3714 simplex iterations) in 1.44 seconds
Thread count was 8 (of 8 available processors)

Solution count 3: 231098 231099 258970 

Optimal solution found (tolerance 1.00e-04)
Best objective 2.310980000000e+05, best bound 2.310750000000e+05, gap 0.0100%

User-callback calls 493, time in user-callback 0.01 sec
Solution written to /Users/mdeboute/Desktop/Etudes/Master/M2/S9/GOPP/Projet/multi-period-flp/solution/instMulti_I20_J250_T4_1_result.txt
